Set parameter TokenServer to value "hpc-licenses.hpcc.usc.edu"
Set parameter TimeLimit to value 3600
Gurobi Optimizer version 9.5.1 build v9.5.1rc2 (linux64)
Thread count: 20 physical cores, 20 logical processors, using up to 20 threads
Optimize a model with 14015 rows, 10581 columns and 64598 nonzeros
Model fingerprint: 0x0cc7b8dc
Variable types: 10514 continuous, 67 integer (67 binary)
Coefficient statistics:
  Matrix range     [1e+00, 1e+00]
  Objective range  [3e-06, 1e+00]
  Bounds range     [1e+00, 1e+00]
  RHS range        [1e+00, 1e+02]
Presolve removed 3086 rows and 3065 columns
Presolve time: 0.21s
Presolved: 10929 rows, 7516 columns, 59737 nonzeros
Variable types: 7456 continuous, 60 integer (60 binary)
Found heuristic solution: objective 263.6903603

Root relaxation: objective 2.730846e+02, 5144 iterations, 0.22 seconds (0.24 work units)

    Nodes    |    Current Node    |     Objective Bounds      |     Work
 Expl Unexpl |  Obj  Depth IntInf | Incumbent    BestBd   Gap | It/Node Time

     0     0  273.08460    0    6  263.69036  273.08460  3.56%     -    0s
H    0     0                     263.7010954  273.08460  3.56%     -    0s
     0     0  273.06411    0    6  263.70110  273.06411  3.55%     -    0s
H    0     0                     264.2761408  273.06411  3.33%     -    0s
     0     0  273.01789    0   16  264.27614  273.01789  3.31%     -    1s
     0     0  273.01789    0   16  264.27614  273.01789  3.31%     -    1s
     0     0  272.70830    0   17  264.27614  272.70830  3.19%     -    1s
     0     0  272.70830    0   16  264.27614  272.70830  3.19%     -    1s
H    0     0                     264.3810639  272.67014  3.14%     -    1s
     0     0  272.67014    0   19  264.38106  272.67014  3.14%     -    1s
     0     0  272.67014    0   18  264.38106  272.67014  3.14%     -    1s
H    0     0                     268.5277034  272.67014  1.54%     -    1s
H    0     0                     268.6136594  272.67014  1.51%     -    1s
     0     0  272.67014    0   19  268.61366  272.67014  1.51%     -    1s
     0     0  272.66761    0   17  268.61366  272.66761  1.51%     -    2s
     0     0  272.63132    0   17  268.61366  272.63132  1.50%     -    2s
     0     0  272.63132    0   18  268.61366  272.63132  1.50%     -    2s
     0     0  272.57024    0   18  268.61366  272.57024  1.47%     -    2s
     0     0  272.45523    0   18  268.61366  272.45523  1.43%     -    2s
     0     2  272.45523    0   17  268.61366  272.45523  1.43%     -    3s
     7     8  272.45523    3   10  268.61366  272.45523  1.43%   739    5s
    92    32  272.45523   10   16  268.61366  272.45523  1.43%   327   10s
*  148    29              12     268.7260252  271.91327  1.19%   332   12s
H  188    31                     269.1941190  271.82681  0.98%   307   14s
   231    25     cutoff   15       269.19412  271.76247  0.95%   306   15s
   427    17  269.96785   17    5  269.19412  271.65940  0.92%   270   20s
   565    15  270.14523   23    9  269.19412  270.31683  0.42%   251   25s

Cutting planes:
  Gomory: 3
  MIR: 69
  Flow cover: 21
  RLT: 21
  Relax-and-lift: 16

Explored 638 nodes (163927 simplex iterations) in 27.20 seconds (7.62 work units)
Thread count was 20 (of 20 available processors)

Solution count 8: 269.194 268.726 268.614 ... 263.69

Optimal solution found (tolerance 1.00e-04)
Best objective 2.691941189932e+02, best bound 2.691941189932e+02, gap 0.0000%



#########node  1
V2.3
#########node  2
V1.9
#########node  3
V1.6
#########node  4
0.0,1.0
#########node  5
1.0,0.0
#########node  6
0.0,1.0
#########node  7
0.9540229885057472,0.045977011494252866


Total Solving Time 28.108072519302368
obj value 269.19411899318334
Policy Regret train (Sum) 13.076314559022276
Best Treatment Found train (%) 48.199999999999996
treatment classification acc train (%) 36.6
Policy Regret test (Sum) 60.014605607752145
Best Treatment Found test (%) 74.81
treatment classification acc test (%) 34.67
Set parameter TokenServer to value "hpc-licenses.hpcc.usc.edu"
Set parameter TimeLimit to value 3600
Gurobi Optimizer version 9.5.1 build v9.5.1rc2 (linux64)
Thread count: 20 physical cores, 20 logical processors, using up to 20 threads
Optimize a model with 14015 rows, 10581 columns and 64598 nonzeros
Model fingerprint: 0x0cc7b8dc
Variable types: 10514 continuous, 67 integer (67 binary)
Coefficient statistics:
  Matrix range     [1e+00, 1e+00]
  Objective range  [3e-06, 1e+00]
  Bounds range     [1e+00, 1e+00]
  RHS range        [1e+00, 1e+02]
Presolve removed 3086 rows and 3065 columns
Presolve time: 0.21s
Presolved: 10929 rows, 7516 columns, 59737 nonzeros
Variable types: 7456 continuous, 60 integer (60 binary)
Found heuristic solution: objective 263.6903603

Root relaxation: objective 2.730846e+02, 5144 iterations, 0.22 seconds (0.24 work units)

    Nodes    |    Current Node    |     Objective Bounds      |     Work
 Expl Unexpl |  Obj  Depth IntInf | Incumbent    BestBd   Gap | It/Node Time

     0     0  273.08460    0    6  263.69036  273.08460  3.56%     -    0s
H    0     0                     263.7010954  273.08460  3.56%     -    0s
     0     0  273.06411    0    6  263.70110  273.06411  3.55%     -    0s
H    0     0                     264.2761408  273.06411  3.33%     -    0s
     0     0  273.01789    0   16  264.27614  273.01789  3.31%     -    0s
     0     0  273.01789    0   16  264.27614  273.01789  3.31%     -    1s
     0     0  272.70830    0   17  264.27614  272.70830  3.19%     -    1s
     0     0  272.70830    0   16  264.27614  272.70830  3.19%     -    1s
H    0     0                     264.3810639  272.67014  3.14%     -    1s
     0     0  272.67014    0   19  264.38106  272.67014  3.14%     -    1s
     0     0  272.67014    0   18  264.38106  272.67014  3.14%     -    1s
H    0     0                     268.5277034  272.67014  1.54%     -    1s
H    0     0                     268.6136594  272.67014  1.51%     -    1s
     0     0  272.67014    0   19  268.61366  272.67014  1.51%     -    1s
     0     0  272.66761    0   17  268.61366  272.66761  1.51%     -    1s
     0     0  272.63132    0   17  268.61366  272.63132  1.50%     -    1s
     0     0  272.63132    0   18  268.61366  272.63132  1.50%     -    2s
     0     0  272.57024    0   18  268.61366  272.57024  1.47%     -    2s
     0     0  272.45523    0   18  268.61366  272.45523  1.43%     -    2s
     0     2  272.45523    0   17  268.61366  272.45523  1.43%     -    3s
    21    14  272.45523    5   17  268.61366  272.45523  1.43%   538    5s
   136    29  271.91275   12   20  268.61366  271.91327  1.23%   339   10s
*  148    29              12     268.7260252  271.91327  1.19%   332   10s
H  188    31                     269.1941190  271.82681  0.98%   307   12s
   280    28  270.83149   12    9  269.19412  271.66155  0.92%   310   15s
   493     4  271.19818   18   15  269.19412  271.19818  0.74%   260   20s

Cutting planes:
  Gomory: 3
  MIR: 69
  Flow cover: 21
  RLT: 21
  Relax-and-lift: 16

Explored 638 nodes (163927 simplex iterations) in 23.73 seconds (7.62 work units)
Thread count was 20 (of 20 available processors)

Solution count 8: 269.194 268.726 268.614 ... 263.69

Optimal solution found (tolerance 1.00e-04)
Best objective 2.691941189932e+02, best bound 2.691941189932e+02, gap 0.0000%



#########node  1
V2.3
#########node  2
V1.9
#########node  3
V1.6
#########node  4
0.0,1.0
#########node  5
1.0,0.0
#########node  6
0.0,1.0
#########node  7
0.9540229885057472,0.045977011494252866


Total Solving Time 24.616991996765137
obj value 269.19411899318334
Policy Regret train (Sum) 13.076314559022276
Best Treatment Found train (%) 48.199999999999996
treatment classification acc train (%) 36.6
Policy Regret test (Sum) 60.014605607752145
Best Treatment Found test (%) 74.81
treatment classification acc test (%) 34.67
